MW

VEHICLE
NUMBER     CAPACITY
  25         33

CUSTOMER
CUST NO.   XCOORD.    YCOORD.    DEMAND   READY TIME   DUE DATE   SERVICE TIME

    0      677.908     6150.22       0         360        1320         0
    1      720.683     6220.16       4        433         553         0
    2      721.52     6174.3       17        392         512         0
    3      718.607     6191.42       10        391         511         0
    4      639.863     6162.56       5        397         517         0
    5      724.421     6180.44       4        400         520         0
    6      638.158     6137.79       6        360         477         0
    7      685.597     6157.24       4        360         444         0
    8      657.716     6156.35       17        443         563         0
    9      724.079     6179.62       5        416         536         0
    10      721.747     6191.12       4        409         529         0
    11      532.891     6223.72       4        788         908         0
    12      498.716     6221.57       17        849         969         0
    13      573.516     6226.69       10        765         885         0
    14      588.124     6228.13       5        746         866         0
    15      537.062     6222.06       4        824         944         0
    16      602.301     6147.96       6        711         831         0
    17      471.662     6105.06       4        884         1004         0
    18      563.954     6257.95       17        840         960         0
    19      570.158     6224.09       5        823         943         0
    20      445.42     6212.54       4        956         1076         0

0	1 2 3 4 5 6 7 8 9 10 11 12 13 14 15 16 17 18 19 20 
1	2 3 4 5 6 7 8 9 10 0 
2	1 3 4 5 6 7 8 9 10 0 
3	1 2 4 5 6 7 8 9 10 0 
4	1 2 3 5 6 7 8 9 10 0 
5	1 2 3 4 6 7 8 9 10 0 
6	1 2 3 4 5 7 8 9 10 0 
7	1 2 3 4 5 6 8 9 10 0 
8	1 2 3 4 5 6 7 9 10 0 
9	1 2 3 4 5 6 7 8 10 0 
10	1 2 3 4 5 6 7 8 9 0 
11	12 13 14 15 16 17 18 19 20 0 
12	11 13 14 15 16 17 18 19 20 0 
13	11 12 14 15 16 17 18 19 20 0 
14	11 12 13 15 16 17 18 19 20 0 
15	11 12 13 14 16 17 18 19 20 0 
16	11 12 13 14 15 17 18 19 20 0 
17	11 12 13 14 15 16 18 19 20 0 
18	11 12 13 14 15 16 17 19 20 0 
19	11 12 13 14 15 16 17 18 20 0 
20	11 12 13 14 15 16 17 18 19 0 
